c description: Random 3-CNF over 20 variables and 85 clauses
c generator: CNFgen (0.9.2)
c copyright: (C) 2012-2022 Massimo Lauria <massimo.lauria@uniroma1.it>
c url: https://massimolauria.net/cnfgen
c command line: cnfgen --output CNF_4.28/20_bit_85_347.cnf randkcnf 3 20 85
c
p cnf 20 85
8 -10 13 0
-3 14 -18 0
10 12 18 0
-1 -9 10 0
6 12 -15 0
4 10 13 0
15 -16 18 0
1 10 13 0
4 7 14 0
-1 -15 -16 0
-7 12 20 0
4 12 19 0
6 17 19 0
6 -7 20 0
8 -14 16 0
-2 -12 -13 0
6 9 -20 0
2 14 17 0
-2 3 -17 0
3 -10 -17 0
-3 -5 13 0
-3 4 -19 0
-6 11 15 0
-1 -5 10 0
-16 17 -19 0
7 10 -19 0
13 -17 -18 0
-1 -12 -16 0
5 7 19 0
-9 -11 -12 0
-3 9 -14 0
-2 15 17 0
-3 13 -16 0
-10 12 -18 0
-3 -5 -10 0
-5 6 -15 0
2 -9 -18 0
4 8 -17 0
-1 -12 -13 0
5 12 14 0
-1 13 -18 0
4 -7 9 0
3 -7 -8 0
-2 6 -14 0
6 -12 14 0
12 14 18 0
12 -17 19 0
1 5 18 0
5 10 -12 0
-9 18 20 0
-3 -8 14 0
1 -5 -10 0
-3 11 12 0
-1 -7 18 0
11 13 18 0
2 -10 -13 0
1 3 -17 0
-2 -5 13 0
7 -9 11 0
5 -9 -20 0
-2 -11 -20 0
-2 -3 10 0
3 -8 -17 0
2 5 9 0
-2 -10 -20 0
-4 -8 -10 0
4 -13 19 0
4 7 12 0
-7 12 -17 0
-4 11 17 0
-4 -14 16 0
2 -4 -17 0
-12 14 18 0
-4 -12 19 0
-1 -15 -17 0
-7 11 18 0
1 -11 -18 0
-4 14 -17 0
11 -17 -19 0
8 -12 13 0
4 -14 16 0
-1 -4 -9 0
-1 -3 9 0
-3 -11 20 0
-1 -6 -14 0
